
******************************************************************************
This program contains Ipopt, a library for large-scale nonlinear optimization.
 Ipopt is released as open source code under the Eclipse Public License (EPL).
         For more information visit http://projects.coin-or.org/Ipopt
******************************************************************************

This is Ipopt version 3.12.13, running with linear solver mumps.
NOTE: Other linear solvers might be more efficient (see Ipopt documentation).

Number of nonzeros in equality constraint Jacobian...:      365
Number of nonzeros in inequality constraint Jacobian.:      104
Number of nonzeros in Lagrangian Hessian.............:      140

Total number of variables............................:       85
                     variables with only lower bounds:       16
                variables with lower and upper bounds:       41
                     variables with only upper bounds:        0
Total number of equality constraints.................:       82
Total number of inequality constraints...............:       28
        inequality constraints with only lower bounds:        0
   inequality constraints with lower and upper bounds:        0
        inequality constraints with only upper bounds:       28

iter    objective    inf_pr   inf_du lg(mu)  ||d||  lg(rg) alpha_du alpha_pr  ls
   0  1.7604502e+03 9.90e-05 1.00e+00   0.0 0.00e+00    -  0.00e+00 0.00e+00   0
   1  1.7604529e+03 9.90e-05 9.20e+04   0.6 7.15e+01    -  3.70e-03 1.02e-07f  2
   2  1.7641168e+03 9.89e-05 5.48e+08   1.5 7.18e+00    -  4.52e-07 1.30e-03f  1
   3  1.8816543e+03 6.40e-03 2.22e+12   0.8 2.95e+00    -  2.66e-04 3.27e-01f  1
   4  1.8409364e+03 6.04e-04 1.71e+13   0.1 2.01e+00   6.0 4.93e-02 9.96e-01h  1
   5  1.8412305e+03 4.50e-06 1.30e+11   0.1 2.99e-02    -  9.84e-01 9.93e-01h  1
   6  1.8414068e+03 1.76e-07 7.26e+08  -0.7 1.81e-03    -  1.00e+00 1.00e+00f  1
   7  1.8577583e+03 1.30e-04 4.21e+08  -0.5 1.02e-01    -  1.00e+00 4.08e-01f  2
   8  1.8521329e+03 1.56e-05 1.24e+04  -0.6 2.02e-02    -  1.00e+00 1.00e+00f  1
   9  1.8631826e+03 6.99e-05 4.31e+06  -1.3 8.10e-02    -  5.15e-01 3.11e-01f  2
iter    objective    inf_pr   inf_du lg(mu)  ||d||  lg(rg) alpha_du alpha_pr  ls
  10  1.8623334e+03 2.76e-07 3.96e+06  -2.0 2.21e-03    -  7.27e-01 1.00e+00h  1
  11  1.8492765e+03 1.31e-04 3.78e+06  -3.0 8.92e-01    -  4.49e-02 4.22e-02f  1
  12  1.8548870e+03 1.06e-04 2.79e+06  -4.4 7.60e-02    -  2.46e-01 1.89e-01h  3
  13  1.8549523e+03 4.37e-09 1.84e+06  -6.7 5.50e-03   5.5 4.92e-01 1.00e+00h  1
  14r 1.8549523e+03 4.37e-09 1.00e+03  -2.6 0.00e+00    -  0.00e+00 4.31e-07R 16
  15r 1.8549528e+03 4.17e-09 1.00e+01  -8.2 2.19e-05    -  9.90e-01 9.89e-01f  1
  16  1.8431610e+03 5.90e-04 7.50e+07   1.5 1.14e+02    -  2.58e-02 7.00e-04f  1
  17  1.8492320e+03 8.18e-04 5.16e+08   0.8 4.00e-01    -  1.00e+00 1.33e-01f  2
  18  1.8489686e+03 9.46e-07 4.02e+08   0.1 1.13e-02    -  5.05e-01 1.00e+00f  1
  19  1.8512180e+03 1.48e-06 1.48e+08  -0.6 2.25e-02    -  5.53e-01 1.00e+00f  1
iter    objective    inf_pr   inf_du lg(mu)  ||d||  lg(rg) alpha_du alpha_pr  ls
  20  1.8656417e+03 1.33e-04 1.03e+08  -1.3 3.87e-02    -  3.83e-01 1.00e+00f  1
  21  1.8599184e+03 1.15e-04 8.31e+07  -2.0 1.23e-01    -  1.94e-01 1.58e-01h  2
  22  1.8203341e+03 9.13e-04 7.63e+07  -3.0 1.66e-01    -  1.25e-01 1.00e+00h  1
  23  1.8203964e+03 7.38e-04 7.05e+07  -4.5 2.55e+00    -  7.64e-02 1.92e-01h  1
  24  1.8228462e+03 6.50e-04 4.05e+07  -4.5 8.70e-02    -  4.25e-01 1.27e-01h  1
  25  1.8223856e+03 6.42e-05 1.34e+07  -4.5 8.84e-02    -  6.71e-01 1.00e+00h  1
  26  1.8201490e+03 8.57e-06 6.75e+06  -0.6 2.06e-01    -  1.00e+00 1.00e+00f  1
  27  1.8201324e+03 4.39e-05 8.92e+04  -2.6 1.70e-03   5.0 1.00e+00 1.00e+00h  1
  28  1.8201296e+03 7.45e-05 1.11e+05  -0.6 1.37e-03   5.5 1.00e+00 1.00e+00f  1
  29  1.8201781e+03 3.68e-05 6.98e+06  -0.8 4.55e-01    -  1.00e+00 3.97e-02h  1
iter    objective    inf_pr   inf_du lg(mu)  ||d||  lg(rg) alpha_du alpha_pr  ls
  30  1.8201788e+03 3.50e-05 2.06e+07  -2.9 2.35e-05   5.0 1.00e+00 6.25e-02h  5
  31  1.8201953e+03 3.00e-05 4.86e+04  -3.8 7.01e-05   4.5 1.00e+00 1.00e+00h  1
  32  1.8202069e+03 4.47e-05 6.58e+04  -5.9 3.55e-05   4.9 1.00e+00 1.00e+00h  1
  33  1.8201737e+03 5.75e-05 6.54e+04  -7.8 5.86e-04   4.5 9.99e-01 1.00e+00H  1
  34  1.8200252e+03 3.20e-05 6.58e+04  -5.7 1.61e-03   4.0 1.00e+00 1.00e+00f  1
  35  1.8199855e+03 3.10e-05 2.18e+02  -7.8 2.27e-04   4.4 1.00e+00 5.04e-01h  1
  36  1.8199808e+03 3.92e-05 5.27e+04  -9.1 3.44e-05   5.7 1.00e+00 1.00e+00h  1

Number of Iterations....: 36

                                   (scaled)                 (unscaled)
Objective...............:   6.3574342326467281e-01    1.8199808057457499e+03
Dual infeasibility......:   5.2711129152663758e+04    1.5089930905521035e+08
Constraint violation....:   3.2971728709993159e-07    3.9214404950582704e-05
Complementarity.........:   8.3730064702810694e-10    2.3969907520305300e-06
Overall NLP error.......:   3.2971728709993159e-07    1.5089930905521035e+08


Number of objective function evaluations             = 109
Number of objective gradient evaluations             = 38
Number of equality constraint evaluations            = 109
Number of inequality constraint evaluations          = 109
Number of equality constraint Jacobian evaluations   = 39
Number of inequality constraint Jacobian evaluations = 39
Number of Lagrangian Hessian evaluations             = 37
Total CPU secs in IPOPT (w/o function evaluations)   =      0.032
Total CPU secs in NLP function evaluations           =      0.002

EXIT: Solved To Acceptable Level.
